NumberOfAtoms 4
NumberOfSpecies 1
LatticeConstant 1.0 Ang
%block LatticeVectors
 0.0000000000000    2.733081957970000  2.733081957970000
 2.733081957970000  0.0000000000000    2.733081957970000
 2.733081957970000  2.733081957970000  0.0000000000000
%endblock LatticeVectors
%block AtomicScaledCoordinatesAndAtomicSpecies
 0.0000000000000  0.0000000000000  0.0000000000000 2
 0.2500000000000  0.2500000000000  0.2500000000000 2
 0.0000000000000  1.0000000000000  0.0000000000000 2
 0.2500000000000  1.2500000000000 -0.7500000000000 2
%endblock AtomicScaledCoordinatesAndAtomicSpecies
