NumberOfAtoms 32
NumberOfSpecies 2
LatticeConstant 1.0 Ang
%block LatticeVectors
 2.7640000000000 -2.7640000000000  0.0000000000000
 2.7640000000000  2.7640000000000  0.0000000000000
 0.0000000000000  0.0000000000000 44.2240000000000
%endblock LatticeVectors
AtomicCoordinatesFormat  Ang
%block AtomicCoordinatesAndAtomicSpecies
 0.0000000000000  0.0000000000000  0.0000000000000 2
 1.3820000000000  1.3820000000000  1.3820000000000 2
 2.7640000000000  0.0000000000000  2.7640000000000 2
 1.3820000000000 -1.3820000000000  4.1460000000000 2
 0.0000000000000  0.0000000000000  5.5280000000000 2
 1.3820000000000  1.3820000000000  6.9100000000000 2
 2.7640000000000  0.0000000000000  8.2920000000000 2
 1.3820000000000 -1.3820000000000  9.6740000000000 2
 0.0000000000000  0.0000000000000 11.0560000000000 2
 1.3820000000000  1.3820000000000 12.4380000000000 2
 2.7640000000000  0.0000000000000 13.8200000000000 2
 1.3820000000000 -1.3820000000000 15.2020000000000 2
 0.0000000000000  0.0000000000000 16.5840000000000 2
 1.3820000000000  1.3820000000000 17.9660000000000 2
 2.7640000000000  0.0000000000000 19.3480000000000 2
 1.3820000000000 -1.3820000000000 20.7300000000000 2
 0.0000000000000  0.0000000000000 22.1120000000000 1
 1.3820000000000  1.3820000000000 23.4940000000000 1
 2.7640000000000  0.0000000000000 24.8760000000000 1
 1.3820000000000 -1.3820000000000 26.2580000000000 1
 0.0000000000000  0.0000000000000 27.6400000000000 1
 1.3820000000000  1.3820000000000 29.0220000000000 1
 2.7640000000000  0.0000000000000 30.4040000000000 1
 1.3820000000000 -1.3820000000000 31.7860000000000 1
 0.0000000000000  0.0000000000000 33.1680000000000 1
 1.3820000000000  1.3820000000000 34.5500000000000 1
 2.7640000000000  0.0000000000000 35.9320000000000 1
 1.3820000000000 -1.3820000000000 37.3140000000000 1
 0.0000000000000  0.0000000000000 38.6960000000000 1
 1.3820000000000  1.3820000000000 40.0780000000000 1
 2.7640000000000  0.0000000000000 41.4600000000000 1
 1.3820000000000 -1.3820000000000 42.8420000000000 1
%endblock AtomicCoordinatesAndAtomicSpecies
NumberOfSpecies 2
%block ChemicalSpeciesLabel
1 32 Ge
2 14 Si
%endblock ChemicalSpeciesLabel
